data/MCDM/NO_CORR/GEN_FROM_60/16_ITEMS_1000_GEN/K5016W14.KNP.mps
NAME          BLANK   
ROWS
 N  OBJROW
 L  R0000000
COLUMNS
    C0000000  OBJROW     -30.          R0000000  91.         
    C0000001  OBJROW     -412.         R0000000  929.        
    C0000002  OBJROW     -302.         R0000000  9.          
    C0000003  OBJROW     -260.         R0000000  481.        
    C0000004  OBJROW     -950.         R0000000  591.        
    C0000005  OBJROW     -505.         R0000000  316.        
    C0000006  OBJROW     -650.         R0000000  663.        
    C0000007  OBJROW     -847.         R0000000  67.         
    C0000008  OBJROW     -518.         R0000000  723.        
    C0000009  OBJROW     -308.         R0000000  651.        
    C0000010  OBJROW     -837.         R0000000  740.        
    C0000011  OBJROW     -179.         R0000000  360.        
    C0000012  OBJROW     -694.         R0000000  820.        
    C0000013  OBJROW     -734.         R0000000  909.        
    C0000014  OBJROW     -331.         R0000000  492.        
    C0000015  OBJROW     -856.         R0000000  506.        
RHS
    RHS       R0000000  14110.      
BOUNDS
 BV BOUND     C0000000  1.          
 BV BOUND     C0000001  1.          
 BV BOUND     C0000002  1.          
 BV BOUND     C0000003  1.          
 BV BOUND     C0000004  1.          
 BV BOUND     C0000005  1.          
 BV BOUND     C0000006  1.          
 BV BOUND     C0000007  1.          
 BV BOUND     C0000008  1.          
 BV BOUND     C0000009  1.          
 BV BOUND     C0000010  1.          
 BV BOUND     C0000011  1.          
 BV BOUND     C0000012  1.          
 BV BOUND     C0000013  1.          
 BV BOUND     C0000014  1.          
 BV BOUND     C0000015  1.          
ENDATA
