data/MCDM/NO_CORR/GEN_FROM_60/16_ITEMS_1000_GEN/K5016W14.KNP.txt
N 16
M 17
LC 16
LC 17
LC 18
LC 19
LC 20
LC 21
LC 22
LC 23
LC 24
LC 25
LC 26
LC 27
LC 28
LC 29
LC 30
LC 31
LR 1
LR 2
LR 3
LR 4
LR 5
LR 6
LR 7
LR 8
LR 9
LR 10
LR 11
LR 12
LR 13
LR 14
LR 15
LR 16
LR 17
LO -30
LO -412
LO -302
LO -260
LO -950
LO -505
LO -650
LO -847
LO -518
LO -308
LO -837
LO -179
LO -694
LO -734
LO -331
LO -856
OS 1
IC 178
IC 232
IC 851
IC 765
IC 803
IC 635
IC 144
IC 526
IC 12
IC 50
IC 402
IC 276
IC 643
IC 843
IC 448
IC 212
IB 3510
